Cars = 1..200;
Options = 1..5;
Classes = 1..26;
sequenceMinCapacity = [0, 0, 0, 0, 0];
sequenceMaxCapacity = [1, 2, 1, 2, 1];
sequenceSize = [2, 3, 3, 5, 5];
numOrdered = [9, 1, 4, 7, 1, 5, 11, 11, 1, 16, 23, 6, 6, 31, 14, 9, 4, 5, 3, 3, 3, 10, 9, 1, 1, 6];
classHasOption = [|false, false, false, false,  true
                  |false,  true,  true,  true,  true
                  |false,  true, false, false,  true
                  | true, false, false,  true, false
                  |false,  true, false,  true,  true
                  |false,  true,  true,  true, false
                  | true, false, false, false, false
                  |false,  true,  true, false, false
                  | true, false, false,  true,  true
                  |false, false, false,  true, false
                  | true,  true, false, false, false
                  | true, false, false, false,  true
                  |false, false,  true,  true, false
                  |false,  true, false, false, false
                  |false,  true, false,  true, false
                  |false, false,  true, false, false
                  | true, false,  true, false, false
                  | true, false,  true,  true, false
                  |false, false, false,  true,  true
                  | true,  true,  true,  true, false
                  | true,  true, false, false,  true
                  | true,  true,  true, false, false
                  | true,  true, false, false, false
                  |false,  true,  true, false,  true
                  |false, false,  true, false,  true
                  | true, false, false, false,  true|];
optionOrdering = [5, 1, 3, 4, 2];
